; benchmark generated from python API
(set-info :status unknown)
(declare-fun x_days () Int)
(declare-fun y_days () Int)
(declare-fun p_days () Int)
(declare-fun q_days () Int)
(assert
 (>= x_days (- 36525)))
(assert
 (<= x_days 36525))
(assert
 (>= y_days (- 36525)))
(assert
 (<= y_days 36525))
(assert
 (= x_days 7245))
(assert
 (= p_days 105))
(assert
 (= q_days 50))
(assert
 (let (($x29 (or (and (= (mod 2000 4) 0) (and (distinct (mod 2000 100) 0) true)) (= (mod 2000 400) 0))))
 (let ((?x36 (ite (= 3 2) (ite $x29 31 31) (ite (= 3 1) (ite $x29 0 0) 0))))
 (let ((?x40 (ite $x29 60 59)))
 (let ((?x41 (ite (= 3 3) ?x40 ?x36)))
 (let ((?x46 (ite (= 3 4) (ite $x29 91 90) ?x41)))
 (let ((?x52 (ite (= 3 5) (ite $x29 121 120) ?x46)))
 (let ((?x58 (ite (= 3 6) (ite $x29 152 151) ?x52)))
 (let ((?x64 (ite (= 3 7) (ite $x29 182 181) ?x58)))
 (let ((?x70 (ite (= 3 8) (ite $x29 213 212) ?x64)))
 (let ((?x76 (ite (= 3 9) (ite $x29 244 243) ?x70)))
 (let ((?x82 (ite (= 3 10) (ite $x29 274 273) ?x76)))
 (let ((?x88 (ite (= 3 11) (ite $x29 305 304) ?x82)))
 (let ((?x16 (- (+ (* 365 (- 2000 1)) (div (- 2000 1) 4)) (div (- 2000 1) 100))))
 (let ((?x95 (+ (+ ?x16 (div (- 2000 1) 400)) (ite (= 3 12) (ite $x29 335 334) ?x88))))
 (let ((?x97 (+ ?x95 (- 1 1))))
 (let ((?x388 (+ (+ (+ x_days p_days) q_days) ?x97)))
 (let ((?x2284 (mod ?x388 146097)))
 (let ((?x3946 (div ?x2284 36524)))
 (let ((?x3933 (ite (<= 4 ?x3946) 3 ?x3946)))
 (let ((?x2366 (- ?x2284 (* ?x3933 36524))))
 (let ((?x1370 (mod ?x2366 1461)))
 (let ((?x324 (div ?x1370 365)))
 (let ((?x587 (ite (<= 4 ?x324) 3 ?x324)))
 (let ((?x1042 (+ (+ (* (div ?x388 146097) 400) (* ?x3933 100)) (* (div ?x2366 1461) 4))))
 (let ((?x1645 (+ (+ ?x1042 ?x587) 1)))
 (let (($x2367 (or (and (= (mod ?x1645 4) 0) (and (distinct (mod ?x1645 100) 0) true)) (= (mod ?x1645 400) 0))))
 (let ((?x1440 (- ?x1370 (* ?x587 365))))
 (let ((?x1580 (ite $x2367 31 31)))
 (let (($x3912 (>= ?x1440 ?x1580)))
 (let ((?x1790 (ite $x3912 (+ (- ?x1440 ?x1580) 1) (+ (- ?x1440 (ite $x2367 0 0)) 1))))
 (let ((?x187 (ite $x2367 60 59)))
 (let (($x530 (>= ?x1440 ?x187)))
 (let ((?x174 (ite $x2367 91 90)))
 (let (($x612 (>= ?x1440 ?x174)))
 (let ((?x677 (ite $x612 (+ (- ?x1440 ?x174) 1) (ite $x530 (+ (- ?x1440 ?x187) 1) ?x1790))))
 (let ((?x1304 (ite $x2367 121 120)))
 (let (($x645 (>= ?x1440 ?x1304)))
 (let ((?x1661 (ite $x2367 152 151)))
 (let (($x1789 (>= ?x1440 ?x1661)))
 (let ((?x954 (ite $x1789 (+ (- ?x1440 ?x1661) 1) (ite $x645 (+ (- ?x1440 ?x1304) 1) ?x677))))
 (let ((?x638 (ite $x2367 182 181)))
 (let (($x462 (>= ?x1440 ?x638)))
 (let ((?x273 (ite $x2367 213 212)))
 (let (($x1550 (>= ?x1440 ?x273)))
 (let ((?x321 (ite $x1550 (+ (- ?x1440 ?x273) 1) (ite $x462 (+ (- ?x1440 ?x638) 1) ?x954))))
 (let ((?x248 (ite $x2367 244 243)))
 (let (($x679 (>= ?x1440 ?x248)))
 (let ((?x1167 (ite $x2367 274 273)))
 (let (($x640 (>= ?x1440 ?x1167)))
 (let ((?x1529 (ite $x640 (+ (- ?x1440 ?x1167) 1) (ite $x679 (+ (- ?x1440 ?x248) 1) ?x321))))
 (let ((?x1302 (ite $x2367 305 304)))
 (let (($x499 (>= ?x1440 ?x1302)))
 (let ((?x101 (ite $x2367 335 334)))
 (let (($x550 (>= ?x1440 ?x101)))
 (let ((?x1356 (ite $x550 (+ (- ?x1440 ?x101) 1) (ite $x499 (+ (- ?x1440 ?x1302) 1) ?x1529))))
 (let ((?x284 (ite $x645 5 (ite $x612 4 (ite $x530 3 (ite $x3912 2 1))))))
 (let ((?x426 (ite $x679 9 (ite $x1550 8 (ite $x462 7 (ite $x1789 6 ?x284))))))
 (let ((?x3906 (- (+ (ite $x550 12 (ite $x499 11 (ite $x640 10 ?x426))) 0) 1)))
 (let ((?x1880 (+ (mod ?x3906 12) 1)))
 (let ((?x863 (ite (or (= ?x1880 4) (= ?x1880 6) (= ?x1880 9) (= ?x1880 11)) 30 31)))
 (let (($x3903 (and (= (mod (+ (+ ?x1645 0) (div ?x3906 12)) 4) 0) (and (distinct (mod (+ (+ ?x1645 0) (div ?x3906 12)) 100) 0) true))))
 (let (($x836 (or $x3903 (= (mod (+ (+ ?x1645 0) (div ?x3906 12)) 400) 0))))
 (let ((?x3900 (ite (= ?x1880 2) (ite $x836 29 28) ?x863)))
 (let ((?x1400 (ite (= 2 ?x1880) (ite $x836 31 31) (ite (= 1 ?x1880) (ite $x836 0 0) 0))))
 (let ((?x2961 (ite (= 4 ?x1880) (ite $x836 91 90) (ite (= 3 ?x1880) (ite $x836 60 59) ?x1400))))
 (let ((?x3930 (ite (= 6 ?x1880) (ite $x836 152 151) (ite (= 5 ?x1880) (ite $x836 121 120) ?x2961))))
 (let ((?x165 (ite (= 8 ?x1880) (ite $x836 213 212) (ite (= 7 ?x1880) (ite $x836 182 181) ?x3930))))
 (let ((?x481 (ite (= 10 ?x1880) (ite $x836 274 273) (ite (= 9 ?x1880) (ite $x836 244 243) ?x165))))
 (let ((?x136 (ite (= 12 ?x1880) (ite $x836 335 334) (ite (= 11 ?x1880) (ite $x836 305 304) ?x481))))
 (let ((?x1877 (+ (* 365 (- (+ (+ ?x1645 0) (div ?x3906 12)) 1)) (div (- (+ (+ ?x1645 0) (div ?x3906 12)) 1) 4))))
 (let ((?x941 (+ (- ?x1877 (div (- (+ (+ ?x1645 0) (div ?x3906 12)) 1) 100)) (div (- (+ (+ ?x1645 0) (div ?x3906 12)) 1) 400))))
 (let ((?x224 (+ (+ ?x941 ?x136) (- (ite (> 1 ?x1356) 1 (ite (> ?x1356 ?x3900) ?x3900 ?x1356)) 1))))
 (= y_days (- (+ ?x224 (- 5)) ?x97)))))))))))))))))))))))))))))))))))))))))))))))))))))))))))))))))))))))))))
(assert
 (= y_days 7395))
(check-sat)
